c 
p cnf 115 192
-10 -9 21 0
-21 -15 16 0
-3 22 23 0
-3 22 -23 0
-3 -22 23 0
-3 -22 -23 0
9 17 24 0
-24 -13 6 0
-8 -14 25 0
-25 17 26 0
-26 9 16 0
-19 -16 20 0
4 -6 27 0
4 -6 -27 0
8 18 28 0
-28 9 7 0
10 3 29 0
-29 -14 30 0
-30 -5 16 0
-4 -1 15 0
-16 15 31 0
-16 15 -31 0
13 32 33 0
13 32 -33 0
13 -32 33 0
13 -32 -33 0
2 15 34 0
2 15 -34 0
17 35 36 0
17 35 -36 0
17 -35 36 0
17 -35 -36 0
2 6 37 0
2 6 -37 0
-19 -13 38 0
-38 4 7 0
2 -18 19 0
-2 39 40 0
-2 39 -40 0
-2 -39 40 0
-2 -39 -40 0
-13 17 41 0
-41 8 -15 0
3 5 42 0
3 5 -42 0
-8 9 43 0
-43 -13 44 0
-44 4 -15 0
-13 -16 45 0
-45 17 46 0
-46 14 19 0
5 15 47 0
-47 18 48 0
-48 -20 11 0
-10 6 8 0
6 49 50 0
6 49 -50 0
6 -49 50 0
6 -49 -50 0
-7 -17 51 0
-51 9 11 0
16 52 53 0
16 52 -53 0
16 -52 53 0
16 -52 -53 0
13 16 54 0
-54 -14 18 0
14 -7 55 0
-55 1 -12 0
14 -2 56 0
14 -2 -56 0
17 57 58 0
17 57 -58 0
17 -57 58 0
17 -57 -58 0
20 -6 59 0
-59 -10 -4 0
-13 2 60 0
-60 12 -17 0
-15 61 62 0
-15 61 -62 0
-15 -61 62 0
-15 -61 -62 0
-3 17 63 0
-63 7 16 0
14 9 64 0
14 9 -64 0
15 9 65 0
-65 -12 66 0
-66 -10 5 0
8 -6 67 0
-67 11 5 0
-14 -7 68 0
-68 -16 69 0
-69 11 19 0
4 -11 7 0
-12 17 -10 0
-6 70 71 0
-6 70 -71 0
-6 -70 71 0
-6 -70 -71 0
-14 4 72 0
-72 7 2 0
18 73 74 0
18 73 -74 0
18 -73 74 0
18 -73 -74 0
16 9 75 0
-75 11 76 0
-76 10 13 0
20 -13 77 0
-77 1 -9 0
10 19 78 0
-78 14 9 0
-14 20 79 0
-79 12 80 0
-80 15 -19 0
-20 12 -10 0
18 4 1 0
6 -18 81 0
-81 12 10 0
-17 11 -15 0
-1 5 82 0
-82 3 15 0
-9 -15 -14 0
-16 83 84 0
-16 83 -84 0
-16 -83 84 0
-16 -83 -84 0
13 16 85 0
13 16 -85 0
16 1 86 0
-86 -15 87 0
-87 -8 20 0
-11 -16 88 0
-88 12 8 0
-10 -4 89 0
-89 17 8 0
-18 7 90 0
-18 7 -90 0
-13 -4 91 0
-91 5 -3 0
2 92 93 0
2 92 -93 0
2 -92 93 0
2 -92 -93 0
14 9 94 0
-94 8 4 0
15 -1 95 0
-95 18 96 0
-96 -5 20 0
-15 -7 97 0
-15 -7 -97 0
-15 -14 98 0
-98 20 -2 0
-13 5 99 0
-99 6 19 0
5 100 101 0
5 100 -101 0
5 -100 101 0
5 -100 -101 0
-12 102 103 0
-12 102 -103 0
-12 -102 103 0
-12 -102 -103 0
-10 104 105 0
-10 104 -105 0
-10 -104 105 0
-10 -104 -105 0
6 9 2 0
6 19 106 0
6 19 -106 0
-19 18 13 0
12 1 107 0
-107 -19 16 0
-7 4 108 0
-108 20 109 0
-109 11 -13 0
11 110 111 0
11 110 -111 0
11 -110 111 0
11 -110 -111 0
-2 112 113 0
-2 112 -113 0
-2 -112 113 0
-2 -112 -113 0
-18 -3 -9 0
-4 12 114 0
-4 12 -114 0
-1 -6 115 0
-115 11 -15 0
-6 7 3 0
